
Gurobi 6.5.2 (linux64) logging started Wed Aug 31 10:35:30 2016

Optimize a model with 201 rows, 1585 columns and 3171 nonzeros
Coefficient statistics:
  Matrix range    [1e+00, 2e+00]
  Objective range [1e+00, 1e+02]
  Bounds range    [1e+00, 1e+00]
  RHS range       [1e+00, 1e+00]
Found heuristic solution: objective 5217
Presolve removed 101 rows and 100 columns
Presolve time: 0.00s
Presolved: 100 rows, 1485 columns, 2970 nonzeros
Variable types: 0 continuous, 1485 integer (1485 binary)

Root relaxation: objective 1.505000e+03, 146 iterations, 0.00 seconds

    Nodes    |    Current Node    |     Objective Bounds      |     Work
 Expl Unexpl |  Obj  Depth IntInf | Incumbent    BestBd   Gap | It/Node Time

     0     0 1505.00000    0   12 5217.00000 1505.00000  71.2%     -    0s
H    0     0                    1655.0000000 1505.00000  9.06%     -    0s
H    0     0                    1507.0000000 1505.00000  0.13%     -    0s
     0     0 infeasible    0      1507.00000 1506.00151  0.07%     -    0s

Cutting planes:
  Clique: 1
  Zero half: 4

Explored 0 nodes (157 simplex iterations) in 0.02 seconds
Thread count was 8 (of 8 available processors)

Optimal solution found (tolerance 1.00e-04)
Best objective 1.507000000000e+03, best bound 1.507000000000e+03, gap 0.0%
